\ENCODING=ISO-8859-1
\Problem name: mknap4_cut_n3

Maximize
 obj1: 560 x0 + 1125 x1 + 300 x2 + 620 x3 + 2100 x4 + 431 x5 + 68 x6 + 328 x7
       + 47 x8 + 122 x9 + 322 x10 + 196 x11 + 41 x12 + 25 x13 + 425 x14
       + 4260 x15 + 416 x16 + 115 x17 + 82 x18 + 22 x19 + 631 x20 + 132 x21
       + 420 x22 + 86 x23 + 42 x24 + 103 x25 + 215 x26 + 81 x27 + 91 x28
       + 26 x29 + 49 x30 + 420 x31 + 316 x32 + 72 x33 + 71 x34 + 49 x35
       + 108 x36 + 116 x37 + 90 x38
Subject To
 c0:    40 x0 + 91 x1 + 10 x2 + 30 x3 + 160 x4 + 20 x5 + 3 x6 + 12 x7 + 3 x8
        + 18 x9 + 9 x10 + 25 x11 + x12 + x13 + 10 x14 + 280 x15 + 10 x16
        + 8 x17 + x18 + x19 + 49 x20 + 8 x21 + 21 x22 + 6 x23 + x24 + 5 x25
        + 10 x26 + 8 x27 + 2 x28 + x29 + 10 x31 + 42 x32 + 6 x33 + 4 x34
        + 8 x35 + 10 x37 + x38 + s0 <= 600
 c1:    16 x0 + 92 x1 + 41 x2 + 16 x3 + 150 x4 + 23 x5 + 4 x6 + 18 x7 + 6 x8
        + 12 x10 + 8 x11 + 2 x12 + x13 + 200 x15 + 20 x16 + 6 x17 + 2 x18 + x19
        + 70 x20 + 9 x21 + 22 x22 + 4 x23 + x24 + 5 x25 + 10 x26 + 6 x27
        + 4 x28 + 4 x30 + 12 x31 + 8 x32 + 4 x33 + 3 x34 + 10 x36 + 6 x38 + s1
        <= 500
 c2:    38 x0 + 39 x1 + 32 x2 + 71 x3 + 80 x4 + 26 x5 + 5 x6 + 40 x7 + 8 x8
        + 12 x9 + 30 x10 + 15 x11 + x13 + 23 x14 + 100 x15 + 20 x17 + 3 x18
        + 40 x20 + 6 x21 + 8 x22 + 6 x24 + 4 x25 + 22 x26 + 4 x27 + 6 x28 + x29
        + 5 x30 + 14 x31 + 8 x32 + 2 x33 + 8 x34 + 20 x36 + s2 <= 500
 c3:    8 x0 + 71 x1 + 30 x2 + 60 x3 + 200 x4 + 18 x5 + 6 x6 + 30 x7 + 4 x8
        + 8 x9 + 31 x10 + 6 x11 + 3 x12 + 18 x14 + 60 x15 + 21 x16 + 4 x17
        + 2 x19 + 32 x20 + 15 x21 + 31 x22 + 2 x23 + 2 x24 + 7 x25 + 8 x26
        + 2 x27 + 8 x28 + 2 x30 + 8 x31 + 6 x32 + 7 x33 + x34 + 20 x37 + 8 x38
        + s3 <= 500
 c4:    38 x0 + 52 x1 + 30 x2 + 42 x3 + 170 x4 + 9 x5 + 7 x6 + 20 x7 + 3 x9
        + 21 x10 + 4 x11 + x12 + 2 x13 + 14 x14 + 310 x15 + 8 x16 + 4 x17
        + 6 x18 + x19 + 18 x20 + 15 x21 + 38 x22 + 10 x23 + 4 x24 + 8 x25
        + 6 x26 + 3 x29 + 10 x31 + 6 x32 + x33 + 3 x34 + 3 x36 + 5 x37 + 4 x38
        + s4 <= 600
 cut_1: 36 x0 + 52 x1 + 29 x2 + 40 x3 + 166 x4 + 9 x5 + 6 x6 + 19 x7
        + 8.67361737988404e-18 x8 + 2 x9 + 20 x10 + 4 x11 + x12 + x13 + 13 x14
        + 300 x15 + 8 x16 + 4 x17 + 5 x18 + 19 x20 + 14 x21 + 36 x22 + 9 x23
        + 3 x24 + 7 x25 + 6 x26 + 4.33680868994202e-18 x27
        - 6.93889390390723e-18 x28 + 2 x29 - 1.73472347597681e-18 x30 + 9 x31
        + 6 x32 + x33 + 2 x34 + 3 x36 + 4 x37 + 3 x38 <= 585
 cut_2: 58 x0 + 183 x1 + 52 x2 + 50 x3 + 313 x4 + 43 x5 + 7 x6 + 32 x7 + 9 x8
        + 18 x9 + 22 x10 + 33 x11 + 2 x12 + 2 x13 + 11 x14 + 487 x15 + 29 x16
        + 15 x17 + 3 x18 + x19 + 119 x20 + 17 x21 + 43 x22 + 10 x23 + 2 x24
        + 10 x25 + 21 x26 + 13 x27 + 6 x28 + x29 + 4 x30 + 22 x31 + 50 x32
        + 9 x33 + 7 x34 + 7 x35 + 10 x36 + 10 x37 + 6 x38 <= 1126
 cut_3: 91 x0 + 183 x1 + 101 x2 + 128 x3 + 397 x4 + 57 x5 + 15 x6 + 77 x7
        + 13 x8 + 15 x9 + 62 x10 + 27 x11 + 2 x12 + 3 x13 + 36 x14 + 606 x15
        + 27 x16 + 30 x17 + 10 x18 + x19 + 128 x20 + 29 x21 + 67 x22 + 13 x23
        + 10 x24 + 16 x25 + 37 x26 + 10 x27 + 9 x28 + 3 x29 + 8 x30 + 35 x31
        + 23 x32 + 7 x33 + 13 x34 + 32 x36 + 5 x37 + 9 x38 <= 1592
Bounds
 0 <= x0 <= 1
 0 <= x1 <= 1
 0 <= x2 <= 1
 0 <= x3 <= 1
 0 <= x4 <= 1
 0 <= x5 <= 1
 0 <= x6 <= 1
 0 <= x7 <= 1
 0 <= x8 <= 1
 0 <= x9 <= 1
 0 <= x10 <= 1
 0 <= x11 <= 1
 0 <= x12 <= 1
 0 <= x13 <= 1
 0 <= x14 <= 1
 0 <= x15 <= 1
 0 <= x16 <= 1
 0 <= x17 <= 1
 0 <= x18 <= 1
 0 <= x19 <= 1
 0 <= x20 <= 1
 0 <= x21 <= 1
 0 <= x22 <= 1
 0 <= x23 <= 1
 0 <= x24 <= 1
 0 <= x25 <= 1
 0 <= x26 <= 1
 0 <= x27 <= 1
 0 <= x28 <= 1
 0 <= x29 <= 1
 0 <= x30 <= 1
 0 <= x31 <= 1
 0 <= x32 <= 1
 0 <= x33 <= 1
 0 <= x34 <= 1
 0 <= x35 <= 1
 0 <= x36 <= 1
 0 <= x37 <= 1
 0 <= x38 <= 1
End
